# Solution for model GasLib-40
# Objective value = 93.3769343096116
loadshed[innode_1] 0
loadshed[innode_2] 0
loadshed[innode_3] 0
loadshed[innode_4] 0
loadshed[innode_5] 0
loadshed[innode_6] 0
loadshed[innode_7] 0
loadshed[innode_8] 0
loadshed[source_1] 6.4374393552792619e-02
loadshed[source_2] 2.0955014278051776e-01
loadshed[source_3] 3.1673123087878974e-01
loadshed[sink_1] 1
loadshed[sink_2] 0
loadshed[sink_3] 0
loadshed[sink_4] 0
loadshed[sink_5] 0
loadshed[sink_6] 0
loadshed[sink_7] 0
loadshed[sink_8] 0
loadshed[sink_9] 1
loadshed[sink_10] 0
loadshed[sink_11] 0
loadshed[sink_12] 1
loadshed[sink_13] 0
loadshed[sink_14] 0
loadshed[sink_15] 0
loadshed[sink_16] 0
loadshed[sink_17] 0
loadshed[sink_18] 3.2270082513622106e-01
loadshed[sink_19] 0
loadshed[sink_20] 0
loadshed[sink_21] 1
loadshed[sink_22] 4.2971660503909076e-01
loadshed[sink_23] 0
loadshed[sink_24] 9.5725498620858174e-01
loadshed[sink_25] 0
loadshed[sink_26] 0
loadshed[sink_27] 0
loadshed[sink_28] 0
loadshed[sink_29] 0
flow[source_1,sink_3] 1.4791331201924081e+02
flow[innode_1,sink_16] 1.6354166666666970e+01
flow[innode_6,sink_13] 6.4610171594146557e+00
flow[sink_13,sink_14] -9.8931495072520121e+00
flow[sink_14,sink_10] -2.6247316173918680e+01
flow[sink_25,sink_26] 0
flow[sink_26,sink_9] 0
flow[sink_9,sink_18] 0
flow[sink_26,sink_4] -1.6354166666667254e+01
flow[sink_4,sink_20] -3.2708333333333925e+01
flow[sink_18,sink_6] -1.1076663588916688e+01
flow[sink_25,innode_8] -1.1520497868590444e+02
flow[sink_6,sink_7] -3.6757339944006574e+01
flow[sink_6,sink_22] 9.3265096884232044e+00
flow[sink_7,sink_24] 6.9905907971382186e-01
flow[sink_22,sink_1] 0
flow[sink_24,sink_21] 0
flow[sink_21,sink_12] 0
flow[sink_7,sink_5] -5.3810565690387044e+01
flow[sink_5,sink_17] -7.0164732357053708e+01
flow[sink_17,sink_4] 0
flow[sink_17,sink_8] -8.6518899023720380e+01
flow[sink_3,sink_23] 16.3541666666697
flow[sink_8,sink_20] -1.0287306569038705e+02
flow[sink_25,sink_20] 1.5193556569038765e+02
flow[sink_25,sink_15] -5.9545770830564834e+01
flow[sink_15,sink_29] -4.4646258733033363e+01
flow[sink_29,sink_28] 1.6354166666667879e+01
flow[sink_29,sink_2] 4.7607845430864813e+01
flow[sink_2,sink_15] 3.1253678764198146e+01
flow[sink_29,innode_7] -1.2496243749723273e+02
flow[innode_4,sink_19] 4.1408423457340831e+01
flow[sink_19,innode_3] 3.6750872410313853e+01
flow[innode_4,innode_5] 66.6097260499116
flow[sink_27,innode_5] -66.6097260499116
flow[sink_27,sink_19] 5.0255559383244929e+01
flow[sink_10,sink_11] 3.2708333333333641e+01
flow[sink_10,innode_2] -3.8558943763605136e+01
flow[sink_10,innode_3] -3.6750872410313853e+01
flow[innode_6,sink_25] -6.4610171594146557e+00
flow[sink_11,innode_1] 1.6354166666666970e+01
flow[sink_19,innode_2] 3.8558943763605136e+01
flow[source_3,innode_4] 1.0801814950725243e+02
flow[source_2,innode_7] 1.2496243749723273e+02
flow[sink_3,innode_8] 1.1520497868590444e+02
pressure[innode_1] 7.7145988517315018e+01
pressure[innode_2] 79.3356892564788
pressure[innode_3] 7.9254308611111071e+01
pressure[innode_4] 81.01325
pressure[innode_5] 8.0967432318081137e+01
pressure[innode_6] 7.6074142499066568e+01
pressure[innode_7] 81.01325
pressure[innode_8] 8.0518832302852942e+01
pressure[source_1] 81.01325
pressure[source_2] 81.01325
pressure[source_3] 81.01325
pressure[sink_1] 1.0132500000000002e+00
pressure[sink_2] 7.6465033883259309e+01
pressure[sink_3] 8.0518832302852942e+01
pressure[sink_4] 3.7453532784082824e+01
pressure[sink_5] 2.4193014029965919e+01
pressure[sink_6] 1.3090298973855954e+00
pressure[sink_7] 1.8136205585792113e+00
pressure[sink_8] 3.2684362256051493e+01
pressure[sink_9] 1.0132500000000002e+00
pressure[sink_10] 7.7297689824918564e+01
pressure[sink_11] 7.7145988517315018e+01
pressure[sink_12] 1.01325
pressure[sink_13] 76.038523991203
pressure[sink_14] 7.6056228624956219e+01
pressure[sink_15] 7.6362997510294051e+01
pressure[sink_16] 7.6124338682497338e+01
pressure[sink_17] 2.9419779425314037e+01
pressure[sink_18] 1.0132499999999509e+00
pressure[sink_19] 79.3356892564788
pressure[sink_20] 3.9853168202865781e+01
pressure[sink_21] 1.01325
pressure[sink_22] 1.0132500000000002e+00
pressure[sink_23] 8.0354114291193156e+01
pressure[sink_24] 1.01325
pressure[sink_25] 7.6074142499066568e+01
pressure[sink_26] 3.5374221707609891e+01
pressure[sink_27] 8.0414694673406387e+01
pressure[sink_28] 77.3757120631183
pressure[sink_29] 7.7670994336735490e+01
interdiction[source_1,sink_3] 0
interdiction[innode_1,sink_16] 0
interdiction[innode_6,sink_13] 0
interdiction[sink_13,sink_14] 0
interdiction[sink_14,sink_10] 0
interdiction[sink_25,sink_26] 1
interdiction[sink_26,sink_9] 1
interdiction[sink_9,sink_18] 0
interdiction[sink_26,sink_4] 0
interdiction[sink_4,sink_20] 0
interdiction[sink_18,sink_6] 0
interdiction[sink_25,innode_8] 0
interdiction[sink_6,sink_7] 0
interdiction[sink_6,sink_22] 0
interdiction[sink_7,sink_24] 0
interdiction[sink_22,sink_1] 0
interdiction[sink_24,sink_21] 0
interdiction[sink_21,sink_12] 0
interdiction[sink_7,sink_5] 0
interdiction[sink_5,sink_17] 0
interdiction[sink_17,sink_4] 1
interdiction[sink_17,sink_8] 0
interdiction[sink_3,sink_23] 0
interdiction[sink_8,sink_20] 0
interdiction[sink_25,sink_20] 0
interdiction[sink_25,sink_15] 0
interdiction[sink_15,sink_29] 0
interdiction[sink_29,sink_28] 0
interdiction[sink_29,sink_2] 0
interdiction[sink_2,sink_15] 0
interdiction[sink_29,innode_7] 0
interdiction[innode_4,sink_19] 0
interdiction[sink_19,innode_3] 0
interdiction[innode_4,innode_5] 0
interdiction[sink_27,innode_5] 0
interdiction[sink_27,sink_19] 0
interdiction[sink_10,sink_11] 0
interdiction[sink_10,innode_2] 0
interdiction[sink_10,innode_3] 0
interdiction[innode_6,sink_25] 0
interdiction[sink_11,innode_1] 0
interdiction[sink_19,innode_2] 0
interdiction[source_3,innode_4] 0
interdiction[source_2,innode_7] 0
interdiction[sink_3,innode_8] 0
WCcheckFlow[source_1,sink_3] 39
WCcheckFlow[innode_1,sink_16] 1
WCcheckFlow[innode_6,sink_13] 13
WCcheckFlow[sink_13,sink_14] 12
WCcheckFlow[sink_14,sink_10] 11
WCcheckFlow[sink_25,sink_26] 0
WCcheckFlow[sink_26,sink_9] 0
WCcheckFlow[sink_9,sink_18] -1
WCcheckFlow[sink_26,sink_4] -1
WCcheckFlow[sink_4,sink_20] -2
WCcheckFlow[sink_18,sink_6] -2
WCcheckFlow[sink_25,innode_8] -36
WCcheckFlow[sink_6,sink_7] -5
WCcheckFlow[sink_6,sink_22] 2
WCcheckFlow[sink_7,sink_24] 3
WCcheckFlow[sink_22,sink_1] 1
WCcheckFlow[sink_24,sink_21] 2
WCcheckFlow[sink_21,sink_12] 1
WCcheckFlow[sink_7,sink_5] -9
WCcheckFlow[sink_5,sink_17] -10
WCcheckFlow[sink_17,sink_4] 0
WCcheckFlow[sink_17,sink_8] -11
WCcheckFlow[sink_3,sink_23] 1
WCcheckFlow[sink_8,sink_20] -12
WCcheckFlow[sink_25,sink_20] 15
WCcheckFlow[sink_25,sink_15] 6
WCcheckFlow[sink_15,sink_29] 5
WCcheckFlow[sink_29,sink_28] 1
WCcheckFlow[sink_29,sink_2] 1
WCcheckFlow[sink_2,sink_15] 0
WCcheckFlow[sink_29,innode_7] 2
WCcheckFlow[innode_4,sink_19] -4
WCcheckFlow[sink_19,innode_3] -5
WCcheckFlow[innode_4,innode_5] 2
WCcheckFlow[sink_27,innode_5] -1
WCcheckFlow[sink_27,sink_19] 0
WCcheckFlow[sink_10,sink_11] 3
WCcheckFlow[sink_10,innode_2] 1
WCcheckFlow[sink_10,innode_3] 6
WCcheckFlow[innode_6,sink_25] -14
WCcheckFlow[sink_11,innode_1] 2
WCcheckFlow[sink_19,innode_2] 0
WCcheckFlow[source_3,innode_4] -1
WCcheckFlow[source_2,innode_7] -1
WCcheckFlow[sink_3,innode_8] 37
